
100
24231

14391 683
1938 92
13022 618
17742 842
17594 835
10872 516
13317 632
7796 370
11146 529
2275 108
14391 683
12663 601
5942 282
7986 379
15529 737
9355 444
20228 960
20481 972
17678 839
1938 92
1601 76
6089 289
7627 362
14855 705
17425 827
11863 563
13485 640
12094 574
737 35
11104 527
4509 214
8786 417
189 9
13822 656
19195 911
1453 69
12242 581
505 24
7417 352
3371 160
18142 861
15360 729
18900 897
4593 218
15150 719
14749 700
10767 511
19322 917
13169 625
5963 283
15129 718
10156 482
4509 214
13022 618
1032 49
9482 450
11736 557
63 3
13675 649
1875 89
13696 650
7206 342
632 30
21071 1000
1369 65
3308 157
10662 506
5183 246
11188 531
10008 475
12158 577
11462 544
6216 295
4467 212
14644 695
9039 429
10978 521
19301 916
189 9
5857 278
11884 564
1137 54
15887 754
8470 402
6679 317
4108 195
20375 967
990 47
17320 822
14855 705
18922 898
14792 702
7311 347
11589 550
19427 922
863 41
17910 850
14202 674
4151 197
20375 967
